(set-info :smt-lib-version 2.6)
(set-logic QF_UFLRA)
(set-info :source |
MathSat group

|)
(set-info :category "random")
(set-info :status unsat)
(declare-fun x0 () Real)
(declare-fun x1 () Real)
(declare-fun x2 () Real)
(declare-fun x3 () Real)
(declare-fun x4 () Real)
(declare-fun x5 () Real)
(declare-fun x6 () Real)
(declare-fun x7 () Real)
(declare-fun x8 () Real)
(declare-fun x9 () Real)
(declare-fun x10 () Real)
(declare-fun x11 () Real)
(declare-fun x12 () Real)
(declare-fun x13 () Real)
(declare-fun x14 () Real)
(declare-fun x15 () Real)
(declare-fun x16 () Real)
(declare-fun x17 () Real)
(declare-fun x18 () Real)
(declare-fun x19 () Real)
(declare-fun x20 () Real)
(declare-fun x21 () Real)
(declare-fun x22 () Real)
(declare-fun x23 () Real)
(declare-fun x24 () Real)
(declare-fun x25 () Real)
(declare-fun x26 () Real)
(declare-fun x27 () Real)
(declare-fun x28 () Real)
(declare-fun x29 () Real)
(declare-fun x30 () Real)
(declare-fun x31 () Real)
(declare-fun x32 () Real)
(declare-fun x33 () Real)
(declare-fun x34 () Real)
(declare-fun x35 () Real)
(declare-fun x36 () Real)
(declare-fun x37 () Real)
(declare-fun x38 () Real)
(declare-fun x39 () Real)
(declare-fun x40 () Real)
(declare-fun x41 () Real)
(declare-fun x42 () Real)
(declare-fun x43 () Real)
(declare-fun x44 () Real)
(declare-fun x45 () Real)
(declare-fun x46 () Real)
(declare-fun x47 () Real)
(declare-fun x48 () Real)
(declare-fun x49 () Real)
(declare-fun f0_1 (Real) Real)
(declare-fun f0_2 (Real Real) Real)
(declare-fun f0_3 (Real Real Real) Real)
(declare-fun f0_4 (Real Real Real Real) Real)
(declare-fun P0 () Bool)
(declare-fun P1 () Bool)
(declare-fun P2 () Bool)
(declare-fun P3 () Bool)
(declare-fun P4 () Bool)
(declare-fun P5 () Bool)
(declare-fun P6 () Bool)
(declare-fun P7 () Bool)
(declare-fun P8 () Bool)
(declare-fun P9 () Bool)
(declare-fun P10 () Bool)
(declare-fun P11 () Bool)
(declare-fun P12 () Bool)
(declare-fun P13 () Bool)
(declare-fun P14 () Bool)
(declare-fun P15 () Bool)
(declare-fun P16 () Bool)
(declare-fun P17 () Bool)
(declare-fun P18 () Bool)
(declare-fun P19 () Bool)
(declare-fun P20 () Bool)
(declare-fun P21 () Bool)
(declare-fun P22 () Bool)
(declare-fun P23 () Bool)
(declare-fun P24 () Bool)
(declare-fun P25 () Bool)
(declare-fun P26 () Bool)
(declare-fun P27 () Bool)
(declare-fun P28 () Bool)
(declare-fun P29 () Bool)
(declare-fun P30 () Bool)
(declare-fun P31 () Bool)
(declare-fun P32 () Bool)
(declare-fun P33 () Bool)
(declare-fun P34 () Bool)
(declare-fun P35 () Bool)
(declare-fun P36 () Bool)
(declare-fun P37 () Bool)
(declare-fun P38 () Bool)
(declare-fun P39 () Bool)
(declare-fun P40 () Bool)
(declare-fun P41 () Bool)
(declare-fun P42 () Bool)
(declare-fun P43 () Bool)
(declare-fun P44 () Bool)
(declare-fun P45 () Bool)
(declare-fun P46 () Bool)
(declare-fun P47 () Bool)
(declare-fun P48 () Bool)
(declare-fun P49 () Bool)
(assert (let ((?v_76 (* 15 x44))) (let ((?v_251 (< (- (+ (* 24 x10) ?v_76) (* 22 x24)) 29)) (?v_39 (<= (- (+ (* 11 x15) (* 17 x48)) (* 12 x46)) 4)) (?v_12 (* 9 x13))) (let ((?v_45 (<= (+ (- (* 5 x36) ?v_12) (* 19 x43)) 17)) (?v_184 (< (- (+ (* 24 x29) (* 20 x40)) (* 15 x24)) 0)) (?v_27 (* 15 x36)) (?v_26 (* 27 x19))) (let ((?v_54 (<= (- (- ?v_27 (* 6 x19)) (* 7 x19)) 29)) (?v_93 (* 20 x48)) (?v_48 (* 23 x35)) (?v_218 (< (+ (- (* 9 x38) (* 8 x16)) (* 5 x38)) 16))) (let ((?v_101 (distinct (+ (- (* 9 x19) ?v_93) (* 3 x23)) 26)) (?v_83 (< (- (+ (* 16 x33) (* 26 x27)) (* 5 x11)) 28)) (?v_185 (distinct (f0_1 x2) x31)) (?v_166 (distinct (f0_1 x47) (f0_2 x12 x29))) (?v_243 (= x14 x40)) (?v_122 (= x38 (f0_2 x23 x18))) (?v_126 (distinct (f0_2 x39 x2) (f0_2 x8 x45))) (?v_57 (= (f0_2 x49 x46) (f0_1 x34))) (?v_96 (= (f0_2 x43 x5) (f0_2 x45 x36))) (?v_213 (= (f0_2 x40 x49) (f0_2 x17 x3))) (?v_141 (= x40 x26)) (?v_44 (= (f0_2 x48 x7) x13)) (?v_110 (distinct x22 (f0_1 x43))) (?v_149 (f0_1 x29))) (let ((?v_236 (distinct x33 ?v_149)) (?v_73 (f0_1 x0))) (let ((?v_106 (distinct (f0_2 x7 x48) ?v_73)) (?v_37 (= x47 (f0_1 x40))) (?v_13 (= x4 x3)) (?v_51 (distinct x2 (f0_1 x6))) (?v_157 (distinct x11 x20)) (?v_16 (distinct ?v_73 (f0_2 x35 x10))) (?v_43 (f0_1 x37))) (let ((?v_105 (= x43 ?v_43)) (?v_67 (distinct (f0_2 x17 x29) x37)) (?v_114 (distinct (f0_2 x35 x47) (f0_2 x27 x23))) (?v_244 (distinct (f0_2 x11 x20) (f0_2 x17 x4))) (?v_151 (distinct (f0_1 x13) (f0_2 x49 x15))) (?v_247 (distinct x11 (f0_2 x35 x49))) (?v_20 (distinct (f0_2 x17 x12) (f0_2 x21 x24))) (?v_0 (f0_1 x9))) (let ((?v_1 (= ?v_0 ?v_0)) (?v_87 (distinct x15 x31)) (?v_179 (= x46 x49)) (?v_133 (= x16 (f0_2 x26 x18))) (?v_36 (= (f0_1 x36) ?v_149)) (?v_56 (f0_1 x20))) (let ((?v_100 (distinct (f0_1 x46) ?v_56)) (?v_10 (f0_1 x45))) (let ((?v_30 (= (f0_1 x49) ?v_10)) (?v_204 (distinct (f0_2 x9 x13) (f0_2 x34 x30))) (?v_74 (= (f0_2 x10 x43) (f0_1 x39))) (?v_102 (= x1 (f0_2 x37 x4))) (?v_31 (= (f0_2 x37 x0) (f0_1 x15))) (?v_232 (= x25 (f0_2 x16 x46))) (?v_177 (distinct ?v_10 (f0_2 x28 x16))) (?v_165 (distinct (f0_2 x2 x6) (f0_2 x27 x34))) (?v_90 (distinct x37 x29)) (?v_192 (distinct x8 (f0_1 x12))) (?v_167 (distinct (f0_2 x31 x5) ?v_56)) (?v_65 (= x20 x36)) (?v_61 (= (f0_2 x15 x5) x27)) (?v_198 (= x14 ?v_10)) (?v_21 (distinct (f0_2 x12 x5) (f0_2 x17 x16))) (?v_112 (distinct (f0_2 x28 x17) (f0_1 x41))) (?v_150 (distinct (f0_2 x8 x22) x20)) (?v_127 (= x41 ?v_43)) (?v_8 (distinct x42 (f0_2 x9 x5))) (?v_9 (not ?v_1)) (?v_19 (not ?v_133)) (?v_2 (not ?v_87)) (?v_123 (not ?v_114)) (?v_196 (not P36)) (?v_97 (not P33)) (?v_4 (not P30)) (?v_15 (not P44)) (?v_142 (not P39)) (?v_125 (not P4)) (?v_234 (not P23)) (?v_159 (not P12)) (?v_130 (not ?v_13)) (?v_250 (not P7)) (?v_239 (not ?v_184))) (let ((?v_164 (not ?v_30)) (?v_78 (not ?v_90)) (?v_59 (not P41)) (?v_11 (not ?v_20)) (?v_230 (not P31)) (?v_47 (not ?v_213)) (?v_155 (not P14)) (?v_55 (not ?v_65)) (?v_116 (not P1)) (?v_168 (not ?v_122)) (?v_117 (not ?v_167)) (?v_219 (not ?v_54)) (?v_121 (not ?v_16)) (?v_80 (not P11)) (?v_70 (not ?v_8)) (?v_209 (not P45)) (?v_82 (not P26)) (?v_33 (not P49)) (?v_162 (not ?v_21)) (?v_53 (not ?v_31)) (?v_46 (not ?v_110)) (?v_228 (not ?v_36)) (?v_191 (not ?v_37)) (?v_50 (not ?v_39)) (?v_79 (not ?v_244)) (?v_103 (not ?v_44)) (?v_81 (not ?v_45)) (?v_148 (not P13)) (?v_71 (not ?v_150)) (?v_68 (not ?v_192)) (?v_135 (not P42)) (?v_62 (not P34)) (?v_63 (not ?v_51)) (?v_175 (not ?v_61)) (?v_129 (not ?v_67)) (?v_86 (not P24)) (?v_131 (not ?v_57)) (?v_104 (not P8)) (?v_72 (not ?v_83)) (?v_118 (not ?v_74)) (?v_163 (not P18)) (?v_113 (not ?v_251)) (?v_132 (not P2)) (?v_182 (not ?v_101)) (?v_139 (not P28)) (?v_98 (not ?v_96)) (?v_154 (not P15)) (?v_200 (not P40)) (?v_158 (not ?v_151)) (?v_201 (not ?v_105)) (?v_202 (not ?v_126)) (?v_225 (not ?v_247)) (?v_170 (not ?v_165)) (?v_137 (not P38)) (?v_197 (not P9)) (?v_160 (not P48)) (?v_241 (not P17)) (?v_233 (not P25)) (?v_144 (not P47)) (?v_153 (not ?v_232)) (?v_183 (not ?v_112)) (?v_146 (not P21)) (?v_172 (not ?v_204)) (?v_237 (not P10)) (?v_259 (not ?v_127)) (?v_256 (not P32)) (?v_156 (not P5)) (?v_194 (not ?v_236)) (?v_222 (not P6)) (?v_212 (not P43)) (?v_226 (not ?v_106)) (?v_181 (not P19)) (?v_240 (not P27)) (?v_174 (not P29)) (?v_221 (not P0)) (?v_171 (not ?v_141)) (?v_203 (not P37)) (?v_207 (not P3)) (?v_214 (not ?v_157)) (?v_224 (not P35)) (?v_186 (not P22)) (?v_242 (not P16)) (?v_215 (not ?v_185)) (?v_257 (not P46)) (?v_227 (not ?v_177)) (?v_254 (not ?v_166)) (?v_231 (not P20)) (?v_252 (not ?v_218)) (?v_249 (not ?v_100)) (?v_253 (not ?v_179)) (?v_248 (not ?v_198)) (?v_41 (< (+ (- 0 (* 13 x48)) (* 2 x22)) 3)) (?v_6 (<= (- (- ?v_48 (* 20 x23)) 0) 27)) (?v_5 (= (+ (* 10 x20) (* 15 x21)) 0))) (let ((?v_24 (not ?v_5)) (?v_58 (< (+ (* 23 x25) (* 15 x35) (* 14 x17)) 6)) (?v_18 (not ?v_6)) (?v_40 (<= (- (* 9 x37) (* 9 x25)) 0)) (?v_91 (< (- (* 20 x31) (* 11 x18)) 9))) (let ((?v_238 (not ?v_91)) (?v_161 (<= (- (* 16 x43) ?v_26) 19))) (let ((?v_69 (not ?v_161)) (?v_115 (< (+ (* 13 x20) (* 26 x5) (* 26 x17)) 8)) (?v_108 (= (+ (* 23 x8) (* 25 x19) (* 3 x34)) 5)) (?v_211 (not ?v_41)) (?v_206 (< (+ (- (* 15 x48) 0) (* 5 x23)) 26)) (?v_111 (= (- (* 25 x25) (* 21 x30)) 7)) (?v_95 (<= (+ x39 (* 24 x3)) 12))) (let ((?v_180 (not ?v_95)) (?v_173 (not ?v_40)) (?v_147 (not ?v_115)) (?v_119 (not ?v_58)) (?v_255 (not ?v_111)) (?v_145 (< 0 9))) (let ((?v_223 (not ?v_145)) (?v_178 (<= (+ (* 26 x11) x18) 3)) (?v_235 (not ?v_108))) (let ((?v_246 (not ?v_178)) (?v_245 (not ?v_206)) (?v_17 (<= (+ (- (* (- 14) x32) (* 26 x30)) (* 5 x6)) (- 23)))) (let ((?v_52 (not ?v_17)) (?v_35 (<= (- (- (* 21 x4) (* 10 x21)) (* 15 x28)) (- 9)))) (let ((?v_25 (not ?v_35)) (?v_3 (<= (- (- (* (- 26) x11) ?v_93) (* 17 x12)) 10)) (?v_7 (< (- (* 9 x7) (* 27 x15)) (- 11))) (?v_217 (< (- (+ (* (- 24) x37) x25) (* 20 x12)) (- 1)))) (let ((?v_140 (not ?v_217)) (?v_22 (< (- (- (* (- 14) x46) (* 22 x45)) (* 27 x46)) 8)) (?v_85 (= (- (- 0 (* 24 x6)) (* 4 x22)) (- 6)))) (let ((?v_84 (not ?v_85)) (?v_28 (<= (- (- (* (- 23) x46) (* 9 x43)) (* 23 x4)) (- 20)))) (let ((?v_89 (not ?v_28)) (?v_208 (< (- (+ (* (- 11) x10) (* 3 x11)) (* 22 x36)) 29))) (let ((?v_23 (not ?v_208)) (?v_14 (= (+ (- (* (- 23) x47) (* 19 x18)) ?v_12) 20))) (let ((?v_66 (not ?v_14)) (?v_60 (<= (+ (* (- 6) x6) (* 26 x3) (* 18 x8)) 10)) (?v_99 (< (- (+ (* 14 x0) (* 11 x42)) (* 7 x10)) (- 7)))) (let ((?v_107 (not ?v_99)) (?v_109 (< (+ (- (* (- 21) x1) (* 12 x15)) (* 6 x5)) 8)) (?v_29 (< (+ (* (- 24) x16) (* 11 x41) (* 8 x10)) (- 14)))) (let ((?v_143 (not ?v_29)) (?v_32 (= (- (* 20 x6) (* 17 x43)) (- 21))) (?v_38 (< (+ (* 2 x2) (* 11 x36)) (- 27))) (?v_49 (< (+ (- 0 (* 13 x36)) ?v_76) (- 21))) (?v_205 (< (- (+ (* (- 15) x6) (* 23 x45)) (* 20 x27)) (- 22)))) (let ((?v_64 (not ?v_205)) (?v_258 (not ?v_3)) (?v_34 (< (- ?v_26 ?v_27) (- 13))) (?v_42 (not ?v_32))) (let ((?v_92 (not ?v_34)) (?v_88 (< (+ (* (- 22) x20) (* 16 x38) (* 15 x43)) 4)) (?v_134 (<= (+ (- (* (- 4) x18) (* 25 x18)) (* 22 x47)) (- 5))) (?v_128 (<= (+ ?v_48 (* 23 x49)) (- 17)))) (let ((?v_138 (not ?v_128)) (?v_169 (not ?v_49)) (?v_77 (distinct (- (- (* 17 x22) (* 9 x20)) (* 23 x18)) (- 19)))) (let ((?v_75 (not ?v_77)) (?v_188 (not ?v_22)) (?v_94 (< (- (+ (* 6 x2) (* 25 x41)) (* 13 x46)) (- 13))) (?v_199 (<= (- (- (* (- 8) x0) (* 17 x16)) (* 2 x32)) 28)) (?v_120 (not ?v_7)) (?v_152 (< (- (- (* 22 x18) (* 26 x42)) (* 11 x45)) (- 27)))) (let ((?v_124 (not ?v_94)) (?v_136 (= (- (- (* (- 1) x9) (* 26 x21)) (* 11 x8)) (- 16))) (?v_220 (not ?v_109)) (?v_195 (not ?v_60))) (let ((?v_193 (not ?v_136)) (?v_176 (not ?v_88)) (?v_187 (not ?v_38)) (?v_190 (<= (- (+ (* (- 5) x39) (* 13 x49)) (* 2 x39)) (- 19)))) (let ((?v_216 (not ?v_190)) (?v_229 (not ?v_152)) (?v_189 (not ?v_134)) (?v_210 (not ?v_199))) (and (and (and (and (and (and (and (and (and (and (and (and (and (and (and (and (and (and (and (and (and (and (and (and (and (and (and (and (and (and (and (and (and (and (and (and (and (and (and (and (and (and (and (and (and (and (and (and (and (and (and (and (and (and (and (and (and (and (and (and (and (and (and (and (and (and (and (and (and (and (and (and (and (and (and (and (and (and (and (and (and (and (and (and (and (and (and (and (and (and (and (and (and (and (and (and (and (and (and (and (and (and (and (and (and (and (and (and (and (and (and (and (and (and (and (and (and (and (and (and (and (and (and (and (and (and (and (and (and (and (and (and (and (and (and (and (and (and (and (and (and (and (and (and (and (and (and (and (and (and (and (and (and (and (and (and (and (and (and (and (and (and (and (and (and (and (and (and (and (and (and (and (and (and (and (and (and (and (and (and (and (and (and (and (and (and (and (and (and (and (and (and (and (and (and (and (and (and (and (and (and (and (and (and (and (and (and (and (and (and (and (and (and (and (and (and (and (and (and (and (and (and (and (and (and (and (and (and (and (and (and (and (and (and (and (and (and (and (and (and (and (and (and (and (and (and (and (and (and (and (and (and (and (and (and (and (and (and (and (and (and (and (and (and (and (and (and (and (and (and (and (and (and (and (and (and (and (and (and (and (and (and (and (and (and (and (and (and (and (and (and (and (and (and (and (and (and (and (and (and (and (and (and (and (and (and (and (and (and (and (and (and (and (and (and (and (and (and (and (and (and (and (and (and (and (and (and (and (and (and (and (and (and (and (and (and (and (and (and (and (and (and (and (and (and (and (and (and (and (and (and (and (and (and (and (and (and (and (and (and (and (and (and (and (and (and (and (and (and (and (and (and (and (and (and (and (and (and (and (and (and (and (and (and (and (and (and (and (and (and (and (and (and (and (and (and (and (and (and (and (and (and (and (and (and (and (and (and (and (and (and (and (and (and (and (and (and (and (and (and (and (and (and (and (and (and (and (and (and (and (and (and (and (and (and (and (and (and (and (and (and (and (and (and (and (and (and (and (and (and (and (and (and (and (and (and (and (and (and (and (and (and (and (and (and (and (and (and (and (and (and (and (and (and (and (and (and (and (and (and (and (and (and (and (and (and (and (and (and (and (and (and (and (and (and (and (and (and (and (and (and (and (and (and (and (and (and (and (and (and (and (and (and (and (and (and (and (and (and (and (and (and (and (and (and (and (and (and (and (and (and (and (and (and (and (and (and (and (and (and (and (and (and (and (and (and (and (and (and (and (and (and (and (and (and (and (and (and (and (and (and (and (and (and (and (and (and (and (and (and (and (and (and (and (and (and (and (and (and (and (and (and (and (and (and (and (and (and (and (and (and (and (and (and (and (and (and (and (and (or (or P20 P17) ?v_9) (or (or ?v_16 ?v_19) ?v_102)) (or (or ?v_8 ?v_2) P42)) (or (or ?v_52 P23) ?v_1)) (or (or P18 ?v_177) ?v_41)) (or (or ?v_6 ?v_123) ?v_196)) (or (or ?v_97 ?v_25) ?v_2)) (or (or P37 ?v_4) P15)) (or (or ?v_3 ?v_7) ?v_140)) (or (or ?v_15 ?v_142) ?v_3)) (or (or ?v_24 ?v_125) ?v_234)) (or (or ?v_51 ?v_159) P31)) (or (or ?v_22 P36) ?v_130)) (or (or ?v_36 ?v_58) ?v_4)) (or (or ?v_84 ?v_67) ?v_37)) (or (or ?v_44 ?v_5) ?v_89)) (or (or ?v_250 ?v_45) P30)) (or (or ?v_74 ?v_5) ?v_18)) (or (or ?v_40 ?v_57) ?v_23)) (or (or ?v_5 ?v_239) ?v_7)) (or (or ?v_8 ?v_166) ?v_238)) (or (or P48 ?v_9) ?v_8)) (or (or ?v_164 ?v_78) ?v_59)) (or (or ?v_11 ?v_69) ?v_6)) (or (or ?v_11 ?v_66) ?v_230)) (or (or ?v_13 ?v_60) ?v_115)) (or (or ?v_39 ?v_21) P8)) (or (or ?v_47 ?v_155) ?v_14)) (or (or ?v_15 ?v_16) P22)) (or (or ?v_55 ?v_116) ?v_168)) (or (or ?v_127 ?v_17) ?v_117)) (or (or ?v_107 ?v_219) ?v_109)) (or (or ?v_18 ?v_31) ?v_121)) (or (or ?v_80 ?v_70) ?v_19)) (or (or ?v_13 ?v_20) ?v_108)) (or (or ?v_143 ?v_21) ?v_209)) (or (or ?v_32 ?v_22) ?v_38)) (or (or ?v_23 ?v_23) ?v_49)) (or (or ?v_82 ?v_33) ?v_64)) (or (or ?v_258 ?v_24) ?v_25)) (or (or ?v_34 ?v_162) ?v_16)) (or (or ?v_179 ?v_28) ?v_29)) (or (or ?v_30 P23) ?v_53)) (or (or ?v_28 ?v_46) ?v_9)) (or (or ?v_42 ?v_33) ?v_92)) (or (or ?v_35 ?v_228) ?v_191)) (or (or ?v_38 ?v_50) ?v_40)) (or (or ?v_211 ?v_18) P25)) (or (or ?v_6 ?v_79) ?v_1)) (or (or ?v_42 P18) P5)) (or (or ?v_105 ?v_103) ?v_81)) (or (or ?v_36 ?v_148) ?v_44)) (or (or ?v_88 P22) ?v_46)) (or (or ?v_61 ?v_11) ?v_47)) (or (or ?v_71 ?v_68) ?v_134)) (or (or ?v_138 ?v_169) ?v_50)) (or (or ?v_75 P10) P31)) (or (or ?v_135 ?v_62) ?v_63)) (or (or ?v_52 ?v_188) ?v_53)) (or (or ?v_54 ?v_94) ?v_199)) (or (or ?v_55 ?v_100) ?v_57)) (or (or P12 ?v_58) ?v_59)) (or (or P34 ?v_60) P44)) (or (or ?v_175 ?v_62) ?v_63)) (or (or ?v_64 ?v_65) ?v_66)) (or (or ?v_129 ?v_68) ?v_61)) (or (or ?v_39 ?v_69) P22)) (or (or P43 P31) ?v_70)) (or (or ?v_86 ?v_131) ?v_71)) (or (or ?v_120 ?v_96) ?v_65)) (or (or ?v_104 ?v_72) ?v_14)) (or (or ?v_157 ?v_72) ?v_71)) (or (or ?v_106 ?v_118) P41)) (or (or P17 ?v_206) ?v_75)) (or (or ?v_163 ?v_113) ?v_77)) (or (or ?v_8 ?v_78) ?v_79)) (or (or ?v_80 ?v_81) P9)) (or (or ?v_31 ?v_82) P25)) (or (or ?v_111 ?v_132) ?v_33)) (or (or ?v_20 ?v_21) ?v_83)) (or (or P2 ?v_112) ?v_84)) (or (or ?v_85 ?v_86) ?v_87)) (or (or P15 P31) ?v_6)) (or (or ?v_88 ?v_75) ?v_152)) (or (or ?v_13 ?v_88) ?v_84)) (or (or ?v_89 ?v_22) ?v_90)) (or (or ?v_91 ?v_180) ?v_92)) (or (or P4 ?v_23) ?v_182)) (or (or ?v_9 ?v_139) ?v_124)) (or (or ?v_95 P42) ?v_98)) (or (or ?v_97 ?v_98) ?v_29)) (or (or P26 P17) P0)) (or (or ?v_67 ?v_99) ?v_154)) (or (or ?v_100 ?v_50) ?v_15)) (or (or ?v_200 ?v_101) P0)) (or (or ?v_21 ?v_102) ?v_103)) (or (or ?v_88 ?v_158) ?v_92)) (or (or ?v_104 P47) P29)) (or (or ?v_92 ?v_201) ?v_106)) (or (or ?v_141 P36) ?v_136)) (or (or ?v_202 P14) ?v_107)) (or (or ?v_62 ?v_108) ?v_8)) (or (or ?v_9 ?v_5) ?v_225)) (or (or ?v_220 ?v_79) ?v_110)) (or (or ?v_111 ?v_62) ?v_86)) (or (or ?v_112 ?v_113) ?v_44)) (or (or ?v_195 ?v_1) P28)) (or (or ?v_173 ?v_185) ?v_198)) (or (or ?v_114 P27) P36)) (or (or P7 P46) ?v_147)) (or (or ?v_5 ?v_85) P44)) (or (or ?v_116 P12) ?v_117)) (or (or ?v_170 ?v_119) P1)) (or (or P22 ?v_113) P0)) (or (or ?v_99 P42) ?v_80)) (or (or ?v_97 ?v_53) ?v_137)) (or (or P36 ?v_118) ?v_16)) (or (or ?v_117 ?v_119) ?v_75)) (or (or ?v_255 ?v_197) P31)) (or (or ?v_120 ?v_5) ?v_121)) (or (or ?v_122 ?v_61) ?v_11)) (or (or ?v_160 ?v_42) ?v_241)) (or (or ?v_123 ?v_22) ?v_82)) (or (or ?v_233 P27) ?v_124)) (or (or ?v_125 ?v_84) ?v_223)) (or (or ?v_126 ?v_11) ?v_67)) (or (or ?v_67 ?v_144) ?v_58)) (or (or ?v_127 P49) ?v_25)) (or (or ?v_128 ?v_129) P7)) (or (or ?v_8 ?v_24) ?v_102)) (or (or ?v_74 P10) ?v_153)) (or (or ?v_58 P36) ?v_183)) (or (or P11 ?v_107) ?v_100)) (or (or ?v_2 ?v_146) P1)) (or (or ?v_85 ?v_106) P17)) (or (or ?v_77 ?v_172) ?v_31)) (or (or ?v_114 P11) ?v_90)) (or (or ?v_130 ?v_131) ?v_77)) (or (or ?v_132 ?v_83) ?v_15)) (or (or ?v_130 ?v_133) ?v_134)) (or (or ?v_135 ?v_96) ?v_46)) (or (or P3 ?v_193) P35)) (or (or ?v_237 ?v_137) ?v_80)) (or (or ?v_259 ?v_59) ?v_138)) (or (or ?v_18 ?v_139) ?v_140)) (or (or ?v_176 ?v_141) ?v_142)) (or (or ?v_105 ?v_256) ?v_143)) (or (or ?v_144 ?v_137) ?v_85)) (or (or ?v_106 ?v_136) ?v_145)) (or (or ?v_13 ?v_156) ?v_25)) (or (or ?v_146 ?v_147) ?v_187)) (or (or ?v_36 ?v_44) ?v_23)) (or (or ?v_65 ?v_148) P11)) (or (or ?v_94 ?v_50) P42)) (or (or ?v_194 ?v_222) ?v_116)) (or (or P15 ?v_150) ?v_131)) (or (or ?v_24 ?v_135) ?v_79)) (or (or ?v_143 ?v_216) ?v_151)) (or (or ?v_143 ?v_36) P17)) (or (or ?v_148 ?v_49) P47)) (or (or ?v_61 P7) P21)) (or (or ?v_137 ?v_152) ?v_138)) (or (or ?v_153 ?v_55) ?v_154)) (or (or ?v_129 ?v_63) ?v_212)) (or (or P31 ?v_45) P35)) (or (or ?v_36 P29) ?v_155)) (or (or ?v_97 ?v_82) ?v_156)) (or (or ?v_157 P26) ?v_158)) (or (or ?v_159 ?v_28) ?v_103)) (or (or ?v_75 P16) ?v_133)) (or (or ?v_153 ?v_57) ?v_160)) (or (or ?v_115 ?v_9) P45)) (or (or P15 ?v_4) ?v_96)) (or (or ?v_5 ?v_161) ?v_226)) (or (or ?v_152 P42) ?v_181)) (or (or ?v_40 ?v_92) P39)) (or (or ?v_162 ?v_163) ?v_240)) (or (or ?v_174 ?v_145) ?v_164)) (or (or P24 ?v_165) ?v_65)) (or (or ?v_87 ?v_58) ?v_143)) (or (or ?v_178 ?v_166) ?v_116)) (or (or ?v_221 ?v_134) ?v_103)) (or (or ?v_19 ?v_167) ?v_13)) (or (or P17 P13) ?v_6)) (or (or ?v_135 ?v_171) ?v_91)) (or (or ?v_137 ?v_71) ?v_235)) (or (or ?v_5 ?v_203) ?v_1)) (or (or ?v_168 ?v_17) P5)) (or (or P15 ?v_165) ?v_207)) (or (or ?v_70 P49) P1)) (or (or ?v_91 P16) ?v_162)) (or (or ?v_169 ?v_79) P9)) (or (or P7 ?v_214) P47)) (or (or ?v_224 ?v_146) ?v_170)) (or (or P36 ?v_229) ?v_58)) (or (or P47 ?v_171) ?v_123)) (or (or P40 ?v_172) ?v_173)) (or (or ?v_174 ?v_153) ?v_128)) (or (or ?v_186 P47) ?v_92)) (or (or ?v_81 ?v_17) ?v_175)) (or (or ?v_51 P31) ?v_32)) (or (or ?v_65 ?v_41) P4)) (or (or ?v_117 ?v_94) ?v_176)) (or (or ?v_177 ?v_8) ?v_30)) (or (or ?v_147 ?v_150) ?v_9)) (or (or ?v_170 ?v_178) P8)) (or (or ?v_37 ?v_150) ?v_7)) (or (or ?v_179 ?v_139) ?v_46)) (or (or P5 P22) ?v_72)) (or (or ?v_92 ?v_161) ?v_180)) (or (or ?v_164 ?v_31) ?v_112)) (or (or ?v_181 ?v_165) ?v_182)) (or (or ?v_40 P27) ?v_47)) (or (or P7 P35) P8)) (or (or ?v_28 ?v_183) ?v_24)) (or (or ?v_184 ?v_185) ?v_54)) (or (or ?v_90 ?v_172) ?v_100)) (or (or ?v_186 ?v_59) ?v_187)) (or (or P32 P8) P14)) (or (or ?v_188 ?v_34) ?v_189)) (or (or P12 ?v_189) ?v_242)) (or (or ?v_137 ?v_115) ?v_75)) (or (or ?v_2 ?v_190) ?v_8)) (or (or ?v_36 ?v_53) ?v_20)) (or (or ?v_78 P29) ?v_54)) (or (or ?v_191 ?v_21) P4)) (or (or P27 P48) P26)) (or (or ?v_170 ?v_95) ?v_47)) (or (or ?v_95 ?v_192) ?v_18)) (or (or ?v_186 ?v_162) ?v_153)) (or (or ?v_101 ?v_193) ?v_189)) (or (or P8 ?v_194) ?v_89)) (or (or ?v_195 ?v_181) P28)) (or (or ?v_215 ?v_124) ?v_176)) (or (or ?v_86 ?v_196) ?v_197)) (or (or ?v_62 ?v_151) ?v_21)) (or (or ?v_86 ?v_144) ?v_132)) (or (or ?v_92 ?v_24) P33)) (or (or ?v_98 ?v_30) ?v_176)) (or (or P42 ?v_22) ?v_198)) (or (or P44 ?v_50) ?v_88)) (or (or ?v_179 ?v_115) P24)) (or (or ?v_199 ?v_37) ?v_164)) (or (or P29 ?v_59) ?v_218)) (or (or ?v_175 ?v_64) ?v_200)) (or (or P5 P40) ?v_182)) (or (or ?v_201 ?v_181) ?v_14)) (or (or ?v_202 ?v_189) ?v_17)) (or (or ?v_16 ?v_200) ?v_203)) (or (or ?v_204 ?v_257) ?v_3)) (or (or ?v_110 ?v_198) ?v_153)) (or (or ?v_123 ?v_205) ?v_110)) (or (or ?v_210 ?v_141) ?v_14)) (or (or ?v_38 ?v_206) ?v_80)) (or (or P40 ?v_156) P28)) (or (or ?v_207 ?v_208) P8)) (or (or ?v_88 ?v_62) P46)) (or (or ?v_199 ?v_84) ?v_111)) (or (or ?v_75 ?v_209) ?v_210)) (or (or ?v_81 ?v_207) ?v_227)) (or (or ?v_4 P22) ?v_211)) (or (or ?v_118 ?v_188) ?v_8)) (or (or ?v_212 ?v_204) ?v_64)) (or (or ?v_33 ?v_213) ?v_28)) (or (or ?v_246 ?v_147) P12)) (or (or ?v_214 ?v_215) ?v_113)) (or (or ?v_91 ?v_112) ?v_24)) (or (or ?v_254 ?v_96) ?v_97)) (or (or P45 ?v_110) P26)) (or (or P30 P39) ?v_15)) (or (or ?v_216 P2) ?v_110)) (or (or ?v_187 ?v_141) ?v_217)) (or (or ?v_148 P19) ?v_45)) (or (or ?v_218 ?v_36) P46)) (or (or ?v_203 P1) ?v_192)) (or (or ?v_30 ?v_39) ?v_219)) (or (or P15 ?v_220) ?v_102)) (or (or ?v_201 ?v_44) ?v_159)) (or (or P25 ?v_77) ?v_221)) (or (or ?v_166 ?v_100) ?v_3)) (or (or ?v_20 ?v_156) ?v_60)) (or (or P45 ?v_197) ?v_52)) (or (or ?v_201 P1) ?v_222)) (or (or ?v_57 ?v_245) P11)) (or (or ?v_122 ?v_223) ?v_1)) (or (or ?v_187 ?v_231) P11)) (or (or ?v_207 ?v_224) P37)) (or (or ?v_126 ?v_220) ?v_59)) (or (or ?v_13 ?v_197) P21)) (or (or ?v_4 ?v_79) ?v_62)) (or (or ?v_134 ?v_225) ?v_141)) (or (or ?v_174 ?v_140) ?v_4)) (or (or ?v_210 P25) ?v_172)) (or (or ?v_11 ?v_157) ?v_49)) (or (or ?v_15 ?v_208) ?v_96)) (or (or P39 ?v_67) ?v_213)) (or (or ?v_154 ?v_121) ?v_156)) (or (or P1 ?v_144) ?v_185)) (or (or P6 P11) ?v_207)) (or (or ?v_7 ?v_88) P13)) (or (or ?v_11 P9) ?v_209)) (or (or ?v_153 ?v_143) ?v_83)) (or (or ?v_226 ?v_22) ?v_167)) (or (or ?v_78 ?v_24) ?v_186)) (or (or ?v_3 ?v_98) ?v_227)) (or (or ?v_114 P24) ?v_100)) (or (or ?v_140 ?v_41) P21)) (or (or ?v_228 ?v_175) ?v_176)) (or (or ?v_34 ?v_252) ?v_229)) (or (or ?v_194 ?v_213) ?v_173)) (or (or ?v_112 ?v_14) ?v_20)) (or (or P7 ?v_14) ?v_214)) (or (or ?v_57 ?v_127) ?v_116)) (or (or P36 ?v_164) ?v_215)) (or (or ?v_112 ?v_230) ?v_22)) (or (or ?v_231 ?v_220) ?v_230)) (or (or ?v_47 ?v_15) ?v_34)) (or (or P32 ?v_216) ?v_213)) (or (or ?v_89 P46) ?v_88)) (or (or ?v_72 P40) ?v_215)) (or (or ?v_204 P32) ?v_15)) (or (or P43 ?v_203) ?v_202)) (or (or P19 ?v_3) ?v_119)) (or (or ?v_232 ?v_119) ?v_197)) (or (or ?v_5 ?v_122) P23)) (or (or ?v_233 ?v_70) ?v_138)) (or (or P3 ?v_162) ?v_233)) (or (or ?v_47 ?v_140) ?v_204)) (or (or ?v_45 ?v_104) ?v_158)) (or (or P22 ?v_64) ?v_134)) (or (or P44 ?v_33) ?v_52)) (or (or ?v_134 ?v_188) ?v_21)) (or (or ?v_249 ?v_88) ?v_6)) (or (or P7 ?v_78) ?v_190)) (or (or ?v_191 P27) ?v_91)) (or (or ?v_161 ?v_196) ?v_126)) (or (or ?v_209 ?v_45) ?v_17)) (or (or ?v_80 ?v_142) ?v_60)) (or (or ?v_233 P34) P49)) (or (or P32 ?v_92) ?v_229)) (or (or ?v_211 ?v_201) ?v_193)) (or (or P8 ?v_227) P44)) (or (or ?v_128 ?v_143) P11)) (or (or ?v_234 ?v_9) P14)) (or (or ?v_7 P30) ?v_85)) (or (or ?v_113 ?v_122) ?v_83)) (or (or ?v_68 ?v_136) ?v_124)) (or (or ?v_116 P49) ?v_152)) (or (or ?v_178 ?v_87) ?v_200)) (or (or ?v_80 ?v_196) ?v_81)) (or (or ?v_68 ?v_195) ?v_82)) (or (or P39 ?v_46) ?v_157)) (or (or ?v_221 P14) ?v_118)) (or (or P0 ?v_145) ?v_30)) (or (or ?v_180 ?v_184) ?v_88)) (or (or ?v_200 ?v_164) ?v_47)) (or (or ?v_7 ?v_160) ?v_235)) (or (or ?v_84 ?v_168) P24)) (or (or ?v_236 ?v_112) ?v_237)) (or (or P37 ?v_195) ?v_167)) (or (or ?v_186 ?v_198) ?v_148)) (or (or ?v_75 P17) ?v_221)) (or (or P48 ?v_24) ?v_238)) (or (or ?v_221 ?v_199) ?v_19)) (or (or ?v_13 ?v_131) P32)) (or (or ?v_235 ?v_100) ?v_239)) (or (or ?v_53 ?v_240) P3)) (or (or ?v_61 P29) ?v_184)) (or (or ?v_116 P23) ?v_177)) (or (or P28 ?v_170) ?v_29)) (or (or ?v_169 ?v_94) ?v_230)) (or (or ?v_225 ?v_243) P26)) (or (or ?v_79 ?v_105) P12)) (or (or P27 ?v_219) ?v_229)) (or (or ?v_33 ?v_241) P8)) (or (or ?v_137 ?v_127) ?v_130)) (or (or ?v_170 ?v_121) ?v_100)) (or (or ?v_135 ?v_170) ?v_171)) (or (or ?v_83 P28) ?v_214)) (or (or ?v_17 ?v_114) ?v_104)) (or (or ?v_105 ?v_127) ?v_242)) (or (or ?v_205 ?v_243) ?v_148)) (or (or ?v_162 ?v_154) P21)) (or (or ?v_88 ?v_49) ?v_244)) (or (or ?v_187 ?v_239) ?v_153)) (or (or ?v_143 ?v_156) ?v_237)) (or (or ?v_140 ?v_163) ?v_201)) (or (or ?v_65 P31) ?v_108)) (or (or ?v_41 ?v_212) ?v_245)) (or (or ?v_37 P23) ?v_112)) (or (or ?v_206 ?v_47) ?v_90)) (or (or ?v_168 ?v_71) ?v_234)) (or (or ?v_32 ?v_91) P25)) (or (or ?v_60 ?v_165) ?v_253)) (or (or ?v_107 ?v_40) ?v_248)) (or (or (not ?v_102) ?v_201) ?v_191)) (or (or ?v_224 ?v_54) P16)) (or (or ?v_121 ?v_155) ?v_223)) (or (or ?v_13 ?v_194) ?v_223)) (or (or ?v_132 P15) ?v_237)) (or (or ?v_135 ?v_223) ?v_237)) (or (or ?v_161 P16) ?v_190)) (or (or ?v_246 ?v_58) ?v_202)) (or (or P41 ?v_112) P15)) (or (or ?v_2 ?v_234) P41)) (or (or P46 P21) P22)) (or (or ?v_158 ?v_11) ?v_121)) (or (or ?v_94 ?v_246) ?v_143)) (or (or ?v_52 ?v_31) ?v_115)) (or (or ?v_242 ?v_49) ?v_210)) (or (or ?v_238 ?v_245) ?v_202)) (or (or ?v_247 ?v_11) ?v_131)) (or (or ?v_60 P19) ?v_122)) (or (or ?v_133 ?v_141) ?v_74)) (or (or ?v_216 ?v_192) ?v_141)) (or (or P32 ?v_5) ?v_134)) (or (or ?v_35 ?v_52) ?v_150)) (or (or ?v_151 P42) ?v_248)) (or (or ?v_42 ?v_18) ?v_40)) (or (or ?v_16 ?v_247) ?v_235)) (or (or ?v_53 ?v_6) ?v_247)) (or (or ?v_118 ?v_164) ?v_249)) (or (or ?v_178 P7) ?v_22)) (or (or ?v_240 ?v_183) ?v_175)) (or (or ?v_244 ?v_170) ?v_247)) (or (or ?v_151 ?v_110) ?v_143)) (or (or ?v_164 ?v_148) ?v_196)) (or (or P4 ?v_72) ?v_32)) (or (or ?v_112 P25) P15)) (or (or ?v_137 P41) P36)) (or (or ?v_250 ?v_234) P37)) (or (or ?v_244 P6) P22)) (or (or ?v_251 ?v_50) ?v_25)) (or (or ?v_119 ?v_186) ?v_59)) (or (or ?v_68 P2) ?v_67)) (or (or ?v_244 ?v_105) ?v_212)) (or (or ?v_78 ?v_246) ?v_42)) (or (or ?v_131 P13) ?v_126)) (or (or ?v_246 ?v_137) ?v_104)) (or (or P48 ?v_218) ?v_132)) (or (or ?v_251 ?v_202) P23)) (or (or P14 P24) P16)) (or (or ?v_13 ?v_98) ?v_144)) (or (or ?v_153 ?v_195) ?v_234)) (or (or P5 P34) P31)) (or (or ?v_102 ?v_236) ?v_248)) (or (or ?v_185 ?v_46) ?v_184)) (or (or ?v_36 ?v_16) ?v_14)) (or (or ?v_120 ?v_81) ?v_192)) (or (or ?v_158 ?v_42) ?v_208)) (or (or ?v_122 ?v_109) ?v_20)) (or (or ?v_203 ?v_145) ?v_221)) (or (or ?v_3 ?v_86) ?v_184)) (or (or ?v_198 ?v_13) ?v_252)) (or (or ?v_109 ?v_165) ?v_242)) (or (or ?v_116 ?v_186) ?v_253)) (or (or ?v_101 ?v_244) ?v_51)) (or (or ?v_139 ?v_108) ?v_58)) (or (or ?v_239 ?v_220) ?v_45)) (or (or ?v_251 ?v_28) P49)) (or (or ?v_20 ?v_247) ?v_169)) (or (or ?v_254 ?v_180) ?v_51)) (or (or ?v_3 ?v_52) ?v_220)) (or (or ?v_157 ?v_169) P28)) (or (or ?v_92 ?v_102) ?v_107)) (or (or ?v_178 ?v_107) ?v_29)) (or (or ?v_78 ?v_69) P32)) (or (or ?v_221 ?v_53) ?v_45)) (or (or ?v_246 ?v_74) ?v_229)) (or (or P7 ?v_3) ?v_189)) (or (or ?v_91 ?v_222) P47)) (or (or ?v_255 ?v_253) P22)) (or (or ?v_160 ?v_105) ?v_70)) (or (or ?v_203 ?v_33) ?v_28)) (or (or ?v_256 ?v_136) ?v_68)) (or (or ?v_147 ?v_142) P24)) (or (or ?v_77 ?v_150) ?v_208)) (or (or P45 ?v_227) ?v_187)) (or (or P18 ?v_54) ?v_94)) (or (or ?v_237 ?v_106) ?v_127)) (or (or ?v_126 P49) ?v_21)) (or (or ?v_254 ?v_24) ?v_50)) (or (or ?v_78 ?v_75) ?v_143)) (or (or ?v_133 ?v_34) ?v_161)) (or (or ?v_257 ?v_4) ?v_258)) (or (or ?v_49 ?v_54) ?v_184)) (or (or P21 ?v_254) ?v_100)) (or (or ?v_178 ?v_29) ?v_245)) (or (or ?v_118 ?v_208) ?v_29)) (or (or ?v_99 ?v_123) P44)) (or (or P34 ?v_226) ?v_144)) (or (or P45 ?v_258) ?v_37)) (or (or ?v_135 ?v_234) ?v_19)) (or (or ?v_183 P39) ?v_38)) (or (or ?v_187 ?v_210) ?v_13)) (or (or ?v_106 ?v_210) P13)) (or (or ?v_212 ?v_166) ?v_158)) (or (or P14 ?v_46) ?v_22)) (or (or ?v_162 ?v_39) P19)) (or (or ?v_194 P16) ?v_103)) (or (or ?v_235 ?v_38) ?v_59)) (or (or ?v_23 P3) ?v_188)) (or (or ?v_72 P25) ?v_215)) (or (or P9 ?v_127) ?v_220)) (or (or ?v_158 ?v_23) ?v_145)) (or (or ?v_6 ?v_77) ?v_54)) (or (or ?v_67 ?v_79) P25)) (or (or ?v_256 ?v_238) ?v_138)) (or (or ?v_235 ?v_160) ?v_152)) (or (or ?v_229 ?v_181) ?v_78)) (or (or ?v_129 ?v_52) ?v_197)) (or (or ?v_157 ?v_114) ?v_231)) (or (or ?v_246 ?v_19) ?v_244)) (or (or ?v_8 ?v_227) ?v_234)) (or (or P48 ?v_72) ?v_110)) (or (or ?v_18 P26) ?v_208)) (or (or P37 ?v_128) ?v_177)) (or (or ?v_116 ?v_49) ?v_211)) (or (or ?v_215 ?v_187) ?v_30)) (or (or ?v_112 ?v_144) P36)) (or (or ?v_25 P25) ?v_61)) (or (or ?v_32 ?v_99) ?v_41)) (or (or ?v_210 ?v_245) ?v_101)) (or (or ?v_255 ?v_135) ?v_63)) (or (or P29 ?v_254) ?v_78)) (or (or P49 ?v_111) P28)) (or (or ?v_67 ?v_255) ?v_209)) (or (or ?v_169 ?v_1) ?v_192)) (or (or ?v_176 (not ?v_243)) ?v_41)) (or (or ?v_99 ?v_234) P4)) (or (or ?v_25 ?v_25) ?v_102)) (or (or ?v_127 P15) ?v_78)) (or (or P18 ?v_224) ?v_132)) (or (or ?v_249 ?v_37) ?v_250)) (or (or ?v_196 ?v_124) ?v_237)) (or (or P8 P21) ?v_162)) (or (or ?v_15 ?v_63) ?v_3)) (or (or P18 ?v_82) ?v_17)) (or (or ?v_195 ?v_216) ?v_252)) (or (or ?v_95 P14) ?v_196)) (or (or ?v_231 P48) ?v_65)) (or (or P4 P7) ?v_258)) (or (or ?v_171 ?v_223) ?v_37)) (or (or ?v_75 ?v_180) ?v_178)) (or (or ?v_254 P44) ?v_127)) (or (or ?v_161 P8) P4)) (or (or ?v_241 ?v_177) ?v_200)) (or (or ?v_103 ?v_118) ?v_193)) (or (or ?v_137 ?v_187) ?v_100)) (or (or P17 P3) ?v_58)) (or (or ?v_6 ?v_189) ?v_237)) (or (or ?v_139 ?v_191) ?v_85)) (or (or ?v_202 ?v_174) ?v_60)) (or (or ?v_116 ?v_236) ?v_242)) (or (or ?v_227 ?v_125) P15)) (or (or ?v_207 ?v_138) ?v_255)) (or (or P46 ?v_158) ?v_21)) (or (or ?v_41 ?v_158) ?v_50)) (or (or ?v_50 ?v_197) ?v_70)) (or (or ?v_147 ?v_171) ?v_219)) (or (or P12 ?v_5) ?v_120)) (or (or ?v_180 ?v_119) P4)) (or (or ?v_239 ?v_258) ?v_229)) (or (or ?v_230 ?v_24) ?v_205)) (or (or ?v_100 ?v_39) ?v_180)) (or (or ?v_188 ?v_213) ?v_86)) (or (or ?v_253 ?v_54) ?v_145)) (or (or ?v_195 P31) ?v_142)) (or (or P11 ?v_199) ?v_132)) (or (or ?v_237 ?v_9) P9)) (or (or P41 ?v_175) P27)) (or (or ?v_108 ?v_47) P26)) (or (or ?v_42 P31) P47)) (or (or ?v_19 P24) ?v_69)) (or (or P0 P42) ?v_20)) (or (or ?v_75 ?v_29) ?v_17)) (or (or P25 ?v_249) ?v_19)) (or (or ?v_94 ?v_89) ?v_138)) (or (or ?v_2 P30) P17)) (or (or ?v_177 ?v_7) ?v_133)) (or (or ?v_20 ?v_22) ?v_172)) (or (or P45 ?v_94) ?v_71)) (or (or ?v_141 ?v_154) ?v_79)) (or (or ?v_151 ?v_171) ?v_57)) (or (or ?v_249 P44) ?v_191)) (or (or P19 ?v_213) P34)) (or (or ?v_174 ?v_158) ?v_118)) (or (or ?v_107 ?v_46) ?v_119)) (or (or ?v_252 P11) ?v_57)) (or (or ?v_110 P18) ?v_231)) (or (or ?v_218 ?v_237) P19)) (or (or ?v_19 ?v_185) ?v_113)) (or (or ?v_254 ?v_243) P25)) (or (or ?v_178 ?v_240) ?v_236)) (or (or ?v_55 ?v_223) P23)) (or (or ?v_68 ?v_259) ?v_14)) (or (or ?v_251 ?v_213) P18)) (or (or ?v_60 ?v_146) ?v_229)) (or (or ?v_233 ?v_119) ?v_113)) (or (or ?v_245 ?v_171) ?v_2)))))))))))))))))))))))))))))))))))))
(check-sat)
(exit)
